p tw 841 950
1 2
2 113
3 14
4 5
5 6
6 7
7 349
8 9
9 10
10 11
11 12
12 13
13 15
14 25
15 16
16 17
17 18
18 19
19 20
20 21
21 22
22 23
23 24
24 349
25 36
26 27
27 28
27 32
28 29
29 30
30 31
31 34
32 33
33 34
34 35
35 37
36 47
36 816
37 38
38 39
39 40
40 349
41 42
42 43
43 44
44 349
45 46
46 48
47 58
48 49
49 50
49 349
50 51
50 349
51 52
52 53
53 54
54 349
55 56
56 57
56 127
57 59
58 69
58 816
59 60
60 61
60 67
61 62
62 63
63 64
64 65
65 66
66 67
66 71
67 68
68 70
69 80
69 508
69 523
69 563
69 730
69 689
69 760
69 582
69 601
69 363
69 621
70 73
71 72
72 73
73 74
74 75
75 76
76 77
76 78
77 78
78 79
79 81
80 91
81 82
82 83
83 84
84 85
85 86
86 87
86 346
87 88
88 89
89 90
90 92
91 102
92 93
92 95
93 94
94 95
94 103
95 96
96 97
97 98
98 99
99 100
100 101
101 83
102 114
103 104
104 105
104 108
105 106
106 107
107 83
108 109
109 110
110 111
111 112
112 115
113 224
114 125
115 116
116 117
117 118
118 119
118 122
119 120
120 121
121 83
122 123
123 124
124 126
125 136
126 83
127 128
128 129
129 130
130 131
131 132
132 133
133 134
134 135
135 137
135 146
136 147
137 138
138 139
139 140
140 141
141 142
142 143
143 144
144 145
145 146
146 148
147 158
148 149
149 150
150 151
150 131
151 349
152 153
153 154
154 155
155 156
156 157
157 159
158 169
159 160
159 349
160 161
161 162
162 163
163 164
164 165
165 166
166 167
167 168
168 170
168 177
169 180
170 171
171 172
172 173
173 174
174 175
175 176
176 349
177 178
178 179
178 184
179 181
180 191
181 182
182 183
183 184
183 189
184 185
185 186
186 187
187 188
188 189
188 349
189 190
190 192
191 202
192 193
193 194
194 195
195 196
196 349
197 198
198 199
199 200
199 206
200 201
201 203
202 213
203 204
204 205
205 209
206 207
207 208
208 209
209 210
210 211
211 212
212 214
213 225
214 215
215 216
216 349
217 218
218 219
219 220
220 349
221 222
222 223
223 226
224 335
225 236
226 227
227 349
228 229
229 230
229 244
230 231
231 232
232 233
233 234
234 235
235 237
235 349
236 247
237 238
238 239
239 240
240 241
241 242
242 243
243 349
244 245
245 246
246 248
247 258
248 249
248 349
249 250
250 251
251 349
252 253
253 254
254 255
255 256
255 257
256 257
257 259
258 269
259 260
259 274
260 261
261 262
262 263
263 264
264 265
264 278
265 266
266 267
267 268
268 270
269 280
270 271
271 272
272 273
273 261
274 275
275 276
276 277
277 281
278 279
279 281
280 291
281 282
282 283
283 349
284 285
285 286
285 349
286 287
287 288
288 289
289 290
290 292
291 302
292 349
293 294
294 295
294 316
295 296
296 297
297 298
298 299
299 300
300 301
301 303
302 313
303 304
304 305
304 311
305 306
306 307
306 311
307 308
308 309
309 310
310 297
311 312
312 314
313 324
314 315
315 349
316 317
317 318
318 319
319 320
320 321
321 322
322 323
323 325
324 336
325 326
326 327
327 328
328 329
329 330
330 331
331 332
332 333
333 334
334 337
335 446
336 347
336 358
337 338
337 326
338 339
339 349
340 341
341 342
342 343
343 344
344 345
345 349
346 348
347 358
347 424
348 349
349 350
350 351
350 363
351 352
351 356
352 353
353 354
354 355
355 356
356 357
357 359
358 369
359 816
360 361
361 362
362 363
362 816
363 364
364 365
364 370
365 366
366 367
366 370
367 368
368 381
369 380
370 371
371 372
372 373
373 374
374 375
374 381
375 376
376 377
377 378
378 379
379 370
380 391
381 382
382 383
382 426
383 384
384 385
384 390
385 386
386 387
386 390
387 388
388 389
389 390
390 392
391 402
392 393
393 394
393 403
394 395
395 396
396 397
397 398
398 399
399 400
400 401
401 403
402 413
403 404
404 405
405 406
405 409
406 407
407 408
408 422
409 410
410 411
411 412
411 416
412 414
413 424
414 415
415 422
416 417
417 418
418 419
419 420
420 421
421 422
422 423
423 425
424 435
425 816
426 427
427 428
428 429
429 430
430 431
431 432
432 433
433 434
433 441
434 436
435 447
435 360
436 437
437 438
438 439
439 440
440 441
441 442
442 443
443 444
443 455
444 445
445 448
446 557
447 458
448 449
449 450
450 451
451 452
452 453
453 454
454 455
455 456
456 457
457 459
457 468
458 469
458 360
459 460
460 461
461 462
462 463
463 464
464 465
465 466
466 467
467 468
468 470
469 480
470 471
470 479
471 472
471 479
472 473
473 474
474 475
475 476
476 477
477 478
478 479
479 481
480 491
480 735
481 482
482 483
483 484
484 485
485 486
485 495
486 487
487 488
488 489
489 490
490 492
491 502
492 493
493 494
494 506
495 496
496 497
497 498
497 506
498 499
499 500
500 501
501 503
502 513
503 504
504 505
505 506
506 507
507 508
508 509
509 510
510 511
511 512
512 514
513 524
514 515
515 516
516 517
517 518
518 519
519 520
520 521
521 522
522 523
523 525
524 535
525 526
526 527
527 528
528 529
529 530
530 531
531 532
532 533
533 534
534 536
535 546
536 537
537 538
538 539
539 540
540 541
540 552
541 542
542 543
543 544
544 545
545 547
546 558
547 548
548 549
549 550
550 551
551 816
552 553
553 554
554 555
555 556
556 559
557 668
557 818
558 569
559 560
560 561
561 562
562 816
563 564
564 565
565 566
566 567
567 568
568 570
569 580
570 571
571 572
572 573
573 574
574 575
575 576
576 577
577 578
578 579
579 581
580 591
581 816
582 583
583 584
584 585
585 586
586 587
587 588
588 589
589 590
590 592
591 602
591 702
592 593
592 816
593 594
594 595
595 596
596 597
597 598
598 599
599 600
600 816
601 603
602 613
603 604
604 605
605 606
606 607
607 608
608 609
609 610
610 611
611 612
611 816
612 614
613 624
614 615
615 616
616 617
617 618
618 619
619 620
620 816
621 622
622 623
623 625
624 635
625 626
626 627
627 628
628 629
629 630
630 631
631 632
632 633
632 638
633 634
634 636
635 646
636 637
637 652
638 639
639 640
640 641
641 642
642 643
643 644
644 645
645 647
646 657
647 648
648 649
649 650
650 651
651 652
652 653
653 654
654 655
655 656
656 658
657 669
658 659
659 660
659 678
660 661
660 678
661 662
662 663
663 664
664 665
665 666
666 667
667 670
668 779
668 818
669 680
670 671
671 672
672 673
673 674
674 675
675 676
675 656
676 677
677 656
678 679
679 681
679 682
680 691
681 682
682 683
683 684
684 685
685 686
686 687
687 688
688 816
689 690
690 692
691 546
692 693
693 694
694 695
695 696
695 721
696 697
697 698
698 699
699 700
700 701
701 703
702 713
703 704
704 705
705 706
706 707
707 708
707 721
708 709
709 710
710 711
711 712
712 714
713 724
714 715
715 716
716 717
717 718
718 719
718 694
719 720
720 694
721 722
722 723
722 725
723 725
724 735
725 726
726 727
727 728
728 729
729 816
730 731
731 732
732 733
733 734
734 736
735 746
736 737
737 738
738 739
739 740
740 741
740 750
741 742
742 743
743 744
744 745
745 747
746 757
747 748
748 749
749 816
750 751
751 752
752 753
753 754
754 755
755 756
756 758
757 768
757 340
758 759
759 816
760 761
761 762
762 763
763 764
764 765
765 766
766 767
767 769
768 780
769 770
770 771
771 772
772 773
772 816
773 774
774 775
775 776
776 777
776 809
777 778
778 781
779 831
780 791
780 340
781 782
782 783
783 784
784 785
785 786
786 787
786 795
787 788
788 789
789 790
790 792
791 802
792 793
793 794
794 795
794 806
795 796
796 797
797 798
798 799
799 800
800 801
801 803
802 228
802 166
802 152
802 160
802 55
802 26
802 197
802 217
802 41
802 45
802 284
802 813
802 252
802 8
802 254
802 38
802 221
802 340
802 293
803 804
804 805
805 809
806 807
807 808
808 775
809 810
810 811
810 771
811 812
812 814
813 824
814 815
815 771
816 817
817 818
818 819
819 820
820 821
821 822
822 823
823 825
824 826
824 349
826 827
827 828
828 829
829 830
830 832
831 3
832 833
833 834
834 835
834 841
835 836
836 837
837 838
838 839
839 840
840 349
841 4
